NAME: random_10_4
TYPE: TSP
COMMENT: random_10_4
DIMENSION: 10
EDGE_WEIGHT_TYPE: EUC_2D
NODE_COORD_SECTION
1 408 315
2 335 128
3 18 35
4 294 75
5 42 161
6 239 178
7 384 375
8 348 5
9 171 210
10 439 82
